c nombre: 6
c densidad: 0.1
p edges 70 238
e 1 9
e 1 21
e 1 23
e 1 25
e 1 27
e 1 42
e 1 47
e 1 65
e 1 70
e 2 5
e 2 9
e 2 11
e 2 16
e 2 31
e 2 41
e 2 58
e 2 65
e 3 11
e 3 20
e 3 21
e 3 25
e 3 32
e 3 36
e 3 57
e 4 11
e 4 22
e 5 29
e 5 31
e 5 49
e 5 53
e 5 54
e 6 12
e 6 29
e 6 32
e 6 33
e 6 48
e 6 58
e 6 59
e 6 63
e 7 8
e 7 10
e 7 17
e 7 23
e 7 26
e 7 49
e 7 58
e 7 63
e 8 12
e 8 21
e 8 32
e 8 36
e 8 50
e 8 51
e 9 30
e 9 32
e 9 54
e 9 64
e 9 67
e 9 68
e 10 11
e 10 12
e 10 35
e 10 38
e 10 54
e 10 69
e 11 24
e 11 34
e 11 47
e 11 54
e 11 58
e 11 68
e 12 25
e 12 26
e 12 27
e 12 36
e 12 52
e 12 56
e 12 58
e 13 16
e 13 17
e 13 25
e 13 28
e 13 41
e 13 52
e 13 55
e 14 17
e 14 50
e 14 59
e 14 61
e 14 65
e 15 24
e 15 29
e 15 30
e 15 39
e 15 51
e 15 67
e 15 70
e 16 30
e 16 31
e 16 32
e 16 37
e 16 47
e 16 48
e 16 52
e 16 69
e 17 38
e 17 44
e 17 50
e 17 54
e 17 60
e 18 20
e 18 27
e 18 31
e 18 35
e 18 49
e 18 56
e 18 67
e 19 24
e 19 42
e 19 51
e 19 58
e 19 60
e 19 65
e 19 66
e 20 29
e 20 32
e 20 34
e 20 48
e 21 26
e 21 37
e 21 54
e 21 57
e 22 52
e 23 27
e 23 40
e 23 65
e 24 27
e 24 44
e 24 48
e 24 55
e 24 58
e 24 59
e 25 38
e 25 42
e 25 46
e 25 52
e 25 58
e 26 32
e 26 39
e 26 45
e 26 58
e 26 65
e 27 54
e 27 66
e 28 33
e 28 48
e 28 56
e 28 60
e 28 61
e 28 62
e 28 64
e 29 32
e 29 47
e 29 49
e 29 50
e 29 54
e 29 55
e 29 56
e 29 61
e 29 67
e 30 53
e 30 62
e 30 63
e 31 35
e 31 42
e 31 49
e 31 56
e 31 59
e 32 42
e 32 55
e 32 66
e 32 68
e 33 35
e 33 48
e 33 50
e 33 61
e 34 35
e 34 37
e 34 55
e 34 62
e 35 49
e 36 60
e 36 64
e 37 57
e 37 64
e 37 67
e 38 51
e 38 61
e 40 58
e 42 50
e 42 51
e 42 66
e 43 58
e 44 51
e 44 58
e 45 48
e 45 61
e 45 64
e 46 60
e 46 65
e 47 49
e 48 61
e 48 65
e 49 55
e 50 54
e 50 61
e 52 57
e 52 63
e 53 56
e 53 61
e 53 70
e 54 66
e 54 70
e 55 57
e 55 67
e 56 70
e 57 60
e 57 68
e 58 59
e 58 64
e 59 68
e 61 67
e 61 70
e 63 64
e 63 66
e 65 66
e 66 69
e 66 70
